************************************************************************
file with basedata            : j60_55.bas
initial value random generator: 371955581
************************************************************************
projects                      :  1
jobs (incl. supersource/sink ):  62
horizon                       :  338
RESOURCES
  - renewable                 :  4   R
  - nonrenewable              :  0   N
  - doubly constrained        :  0   D
************************************************************************
PROJECT INFORMATION:
pronr.  #jobs rel.date duedate tardcost  MPM-Time
    1     60      0       72       37       72
************************************************************************
PRECEDENCE RELATIONS:
jobnr.    #modes  #successors   successors
   1        1          3           2   3   4
   2        1          3          14  17  29
   3        1          3           7   8  20
   4        1          3           5   6  11
   5        1          1          18
   6        1          1          10
   7        1          2           9  14
   8        1          2          22  33
   9        1          3          23  25  51
  10        1          3          19  23  26
  11        1          3          12  32  49
  12        1          3          13  17  59
  13        1          3          15  25  37
  14        1          3          21  52  56
  15        1          3          16  35  40
  16        1          3          24  42  57
  17        1          3          28  31  50
  18        1          3          34  37  47
  19        1          3          24  35  41
  20        1          3          22  28  50
  21        1          3          25  26  27
  22        1          3          30  40  42
  23        1          3          24  28  49
  24        1          2          38  43
  25        1          3          35  39  50
  26        1          3          36  38  44
  27        1          2          31  37
  28        1          2          40  52
  29        1          3          33  36  43
  30        1          3          32  36  54
  31        1          2          38  43
  32        1          2          41  44
  33        1          3          39  45  51
  34        1          3          41  42  49
  35        1          2          46  61
  36        1          1          58
  37        1          1          39
  38        1          2          45  48
  39        1          3          44  46  48
  40        1          3          46  47  53
  41        1          1          51
  42        1          1          48
  43        1          2          45  60
  44        1          2          55  57
  45        1          2          47  53
  46        1          1          57
  47        1          1          54
  48        1          1          53
  49        1          3          52  56  59
  50        1          1          55
  51        1          2          56  59
  52        1          1          60
  53        1          2          54  55
  54        1          1          61
  55        1          1          61
  56        1          1          58
  57        1          1          58
  58        1          1          60
  59        1          1          62
  60        1          1          62
  61        1          1          62
  62        1          0        
************************************************************************
REQUESTS/DURATIONS:
jobnr. mode duration  R 1  R 2  R 3  R 4
------------------------------------------------------------------------
  1      1     0       0    0    0    0
  2      1     2       0    0    0    6
  3      1     2       8    9    5    0
  4      1     5       6    0    0    2
  5      1     5       0    0    0    3
  6      1     2       8    5    0    6
  7      1     4      10    0    0    0
  8      1     3       0    0   10    7
  9      1     3       0    0    2    9
 10      1    10       0    2    0    0
 11      1     7       6    3    0    0
 12      1     6       3    0    0    0
 13      1    10       4    0    0    1
 14      1     7       0    0    3    0
 15      1     8       0    4    0    0
 16      1     3       0    0    9    6
 17      1     8       5    1    0    0
 18      1     6       2    0    9    1
 19      1     6       0    0    8    0
 20      1     4       0    4    4    0
 21      1     9       0    7    9    9
 22      1     1       0    0    0    4
 23      1    10       0    0    1    0
 24      1     3       0    1    6    0
 25      1     6       0    0    8    5
 26      1     5       0    8    0   10
 27      1     7       2    0    3    0
 28      1     7       0    0    1    0
 29      1     5       7   10    4    4
 30      1    10       6    2    8    5
 31      1     9       0    0    0    2
 32      1     7       7   10    0   10
 33      1     2       0    0    0    7
 34      1     9       4    7    0    0
 35      1     6       3    0    7    4
 36      1     7       0   10    0    1
 37      1     3       5    9    1    6
 38      1     7       1    7    0    9
 39      1     2       7    8    0    0
 40      1     6       7    4    0    0
 41      1     8       0    0    6    0
 42      1     4       0    1    6    3
 43      1    10       0    3    0    0
 44      1     7       2    0    5    9
 45      1     2       7    0    9    0
 46      1     8       0    0    4    0
 47      1     9       4    0    0    7
 48      1     6      10    5    0    6
 49      1     7      10    8    7    0
 50      1     8       6    0    0    8
 51      1     3       6    0    0    5
 52      1     5       5    6    0    0
 53      1     3       0    2    4    1
 54      1     8       8    0    0    0
 55      1     4       1    0   10    0
 56      1     3       0    2    7    0
 57      1     4       0    1    0    8
 58      1    10       1    0    2    3
 59      1     1       6    0    9    0
 60      1     5       0    0    5    0
 61      1     1       5    0    0    6
 62      1     0       0    0    0    0
************************************************************************
RESOURCEAVAILABILITIES:
  R 1  R 2  R 3  R 4
   25   25   29   23
************************************************************************
